12 32 9 10
5 11 10 17 16 11 8 7 5 5 8 20 15 20 10 19 7 16 10 1 2 15 7 13 9 12 16 3 8 18 13 6 
1.45 2.49 0.83 6.03 6.45 2.21 1.59 2.3 2.76 4.79 5.38 3.07 3.1 7.18 7.71 1.95 1.35 6.39 3.28 6.99 0.34 2.59 0.99 2.39 3.14 6.39 6.41 1.7 3.23 3.95 1.11 3 
5.57 2.27 4.5 6.99 1.77 1.49 3.21 6.56 1.25 5.04 7.81 1.52 4.53 0.78 0.51 0.69 4.68 6.33 5.51 1.11 3.56 4.82 6.06 5.51 1.89 2.15 3.24 0.38 1.64 3.89 5.35 6.71 
7.68 5.29 4.7 4.72 2.94 2.5 6.14 7.11 3.36 6.77 2.37 0.7 5.89 1.65 5.9 2.82 1.89 5.53 0.56 6.65 4.47 7.17 1.54 1.2 0.74 3.94 0.09 3.7 2.64 0.88 4.6 4.71 
7.39 3.75 5.6 7.87 3.12 2.96 7.2 3.35 3.25 3.97 5.98 1.58 6.56 5.07 4.14 7.08 7.98 3.68 3.61 7.5 3.57 4.24 4.76 2.89 5.46 1.94 6.06 7.49 4.12 0.94 0.36 3.48 
7.9 3.35 0.13 0.11 4.06 4.3 3.11 1.29 5.46 0.45 2.07 1.9 5.54 3.04 4.2 5.66 1.86 4.29 0.66 3.81 7.87 2.68 6.14 0.25 5.57 6.78 7.03 4.81 7.63 3.23 2.95 3.91 
0.32 5.37 5.73 1.36 3.58 3.25 5.97 1.73 0.52 2.07 1.67 2.31 2.37 6.52 2.93 1.5 4.37 0.09 4.46 4.03 1.48 2.55 2.54 5.6 2.82 4.89 3.58 1.21 6.29 6.42 4.26 4.67 
3.77 3.54 1.97 3.49 0.81 0.96 6.78 4.64 5.78 5.64 1.85 3.83 4.96 5.95 1.83 6.04 1.53 1.12 0.14 4.24 2.13 5.6 5.44 4.63 5.02 2.32 0.89 2.53 4.84 4.85 4.18 5.45 
3.38 5.12 4.86 5.5 3.28 6.14 4.73 3.31 1.24 3.11 7.19 4.1 3.71 3.73 6 5.42 5.76 7.94 2.41 0.79 1.55 3.57 6.77 6.01 6.7 7.23 7.45 2.73 4.07 5.73 5.22 3.31 
2.38 2.01 7.79 2.35 5.91 4.86 6.81 1.42 3.39 7.35 3.2 1.35 1.35 6.34 1.8 0.87 5.42 3.56 3.94 1.88 0.37 0.03 0.84 7.29 3.19 6.6 4.26 0.89 4.67 2.92 6.27 6.67 
4 4 4 4 4 4 4 4 4 4 4 4 4 4 4 4 4 4 4 4 4 4 4 4 4 4 4 4 4 4 4 4 
0.74 3.56 7.33 5.07 2.69 7.07 6.72 4.17 1.89 0.44 6.53 0.24 0.62 3.14 2.89 3.44 3.85 1.75 6.53 6.55 0.45 2.2 0.47 6.4 7.15 4.48 0.41 2.61 5.09 6.7 3.91 3.26 
7.71 6.43 3.56 4.08 6.55 2.5 5.44 3.49 6.17 3.71 5.24 1.96 3.35 6.06 0.94 2.74 7.38 2.5 2.56 7.47 4.24 6.49 1.53 3.3 0.8 4.19 6.03 4.13 1.03 6.32 0.26 4.31 
1 1 1 1 1 1 1 1 1 1 1 1 1 1 1 1 1 1 1 1 1 1 1 1 1 1 1 1 1 1 1 1 
1 1 1 1 1 1 1 1 1 1 1 1 1 1 1 1 1 1 1 1 1 1 1 1 1 1 1 1 1 1 1 1 
1 1 1 1 1 1 1 1 1 1 1 1 1 1 1 1 1 1 1 1 1 1 1 1 1 1 1 1 1 1 1 1 
1 1 1 1 1 1 1 1 1 1 1 1 1 1 1 1 1 1 1 1 1 1 1 1 1 1 1 1 1 1 1 1 
1 1 1 1 1 1 1 1 1 1 1 1 1 1 1 1 1 1 1 1 1 1 1 1 1 1 1 1 1 1 1 1 
1 1 1 1 1 1 1 1 1 1 1 1 1 1 1 1 1 1 1 1 1 1 1 1 1 1 1 1 1 1 1 1 
1 1 1 1 1 1 1 1 1 1 1 1 1 1 1 1 1 1 1 1 1 1 1 1 1 1 1 1 1 1 1 1 
1 1 1 1 1 1 1 1 1 1 1 1 1 1 1 1 1 1 1 1 1 1 1 1 1 1 1 1 1 1 1 1 
1 1 1 1 1 1 1 1 1 1 1 1 1 1 1 1 1 1 1 1 1 1 1 1 1 1 1 1 1 1 1 1 
1 1 1 1 1 1 1 1 1 1 1 1 1 1 1 1 1 1 1 1 1 1 1 1 1 1 1 1 1 1 1 1 
1 1 1 1 1 1 1 1 1 1 1 1 1 1 1 1 1 1 1 1 1 1 1 1 1 1 1 1 1 1 1 1 
1 1 1 1 1 1 1 1 1 1 1 1 1 1 1 1 1 1 1 1 1 1 1 1 1 1 1 1 1 1 1 1 
0.01 0.01 0.01 0.01 0.01 0.01 0.01 0.01 0.01 0.01 0.01 0.01 0.01 0.01 0.01 0.01 0.01 0.01 0.01 0.01 0.01 0.01 0.01 0.01 0.01 0.01 0.01 0.01 0.01 0.01 0.01 0.01 
0.02 0.02 0.02 0.02 0.02 0.02 0.02 0.02 0.02 0.02 0.02 0.02 0.02 0.02 0.02 0.02 0.02 0.02 0.02 0.02 0.02 0.02 0.02 0.02 0.02 0.02 0.02 0.02 0.02 0.02 0.02 0.02 
0.03 0.03 0.03 0.03 0.03 0.03 0.03 0.03 0.03 0.03 0.03 0.03 0.03 0.03 0.03 0.03 0.03 0.03 0.03 0.03 0.03 0.03 0.03 0.03 0.03 0.03 0.03 0.03 0.03 0.03 0.03 0.03 
0.04 0.04 0.04 0.04 0.04 0.04 0.04 0.04 0.04 0.04 0.04 0.04 0.04 0.04 0.04 0.04 0.04 0.04 0.04 0.04 0.04 0.04 0.04 0.04 0.04 0.04 0.04 0.04 0.04 0.04 0.04 0.04 
0.05 0.05 0.05 0.05 0.05 0.05 0.05 0.05 0.05 0.05 0.05 0.05 0.05 0.05 0.05 0.05 0.05 0.05 0.05 0.05 0.05 0.05 0.05 0.05 0.05 0.05 0.05 0.05 0.05 0.05 0.05 0.05 
0.06 0.06 0.06 0.06 0.06 0.06 0.06 0.06 0.06 0.06 0.06 0.06 0.06 0.06 0.06 0.06 0.06 0.06 0.06 0.06 0.06 0.06 0.06 0.06 0.06 0.06 0.06 0.06 0.06 0.06 0.06 0.06 
0.07 0.07 0.07 0.07 0.07 0.07 0.07 0.07 0.07 0.07 0.07 0.07 0.07 0.07 0.07 0.07 0.07 0.07 0.07 0.07 0.07 0.07 0.07 0.07 0.07 0.07 0.07 0.07 0.07 0.07 0.07 0.07 
0.08 0.08 0.08 0.08 0.08 0.08 0.08 0.08 0.08 0.08 0.08 0.08 0.08 0.08 0.08 0.08 0.08 0.08 0.08 0.08 0.08 0.08 0.08 0.08 0.08 0.08 0.08 0.08 0.08 0.08 0.08 0.08 
0.09 0.09 0.09 0.09 0.09 0.09 0.09 0.09 0.09 0.09 0.09 0.09 0.09 0.09 0.09 0.09 0.09 0.09 0.09 0.09 0.09 0.09 0.09 0.09 0.09 0.09 0.09 0.09 0.09 0.09 0.09 0.09 
0.1 0.1 0.1 0.1 0.1 0.1 0.1 0.1 0.1 0.1 0.1 0.1 0.1 0.1 0.1 0.1 0.1 0.1 0.1 0.1 0.1 0.1 0.1 0.1 0.1 0.1 0.1 0.1 0.1 0.1 0.1 0.1 
0.5 0.5 0.5 0.5 0.5 0.5 0.5 0.5 0.5 0.5 0.5 0.5 0.5 0.5 0.5 0.5 0.5 0.5 0.5 0.5 0.5 0.5 0.5 0.5 0.5 0.5 0.5 0.5 0.5 0.5 0.5 0.5 
1 1 1 1 1 1 1 1 1 1 1 1 1 1 1 1 1 1 1 1 1 1 1 1 1 1 1 1 1 1 1 1 
